\* Improving_ex_post_stable_matchings *\
Minimize
OBJ: 0 __dummy + 640010 w_0 + 1.75 w_1 + 1.75 w_10 + 2 w_11 + 2.625 w_12
 + 2.25 w_13 + 2.25 w_14 + 2.375 w_15 + 1.875 w_16 + 2 w_17 + 1.875 w_18
 + 2.25 w_19 + 2.25 w_2 + 2.5 w_20 + 1.875 w_21 + 2.25 w_22 + 2.125 w_23
 + 2.625 w_24 + 2.375 w_25 + 2.375 w_26 + 2.375 w_27 + 2.75 w_28 + 1.75 w_29
 + 2.125 w_3 + 2.75 w_30 + 2.25 w_31 + 2 w_32 + 2.125 w_33 + 2.5 w_34
 + 2.5 w_35 + 2.625 w_36 + 2.5 w_37 + 2.5 w_38 + 2.125 w_39 + 2.375 w_4
 + 2.25 w_40 + 1.875 w_41 + 2.25 w_42 + 2.625 w_43 + 2.5 w_44 + 2.25 w_45
 + 2.375 w_46 + 2.5 w_47 + 2.375 w_48 + 2.5 w_49 + 2 w_5 + 2.125 w_50
 + 2.125 w_51 + 2.5 w_52 + 1.875 w_6 + 2.125 w_7 + 2 w_8 + 2.125 w_9
Subject To
FOSD_0_0: 2 w_0 + w_15 + w_16 + w_17 + w_18 + w_19 + w_20 + w_21 + w_22 + w_23
 + w_24 + w_25 + w_26 + w_27 + w_28 + w_29 + w_30 + w_32 + w_33 + w_34 + w_38
 + w_39 + w_40 + w_41 + w_42 + w_43 + w_44 + w_45 + w_46 + w_47 + w_48 + w_49
 + w_5 + w_50 + w_51 + w_6 + w_7 + w_9 >= 0.772
FOSD_0_1: w_0 + w_17 + w_18 + w_7 + w_9 >= 0.22
FOSD_0_2: 4 w_0 + w_12 + w_13 + w_14 + w_15 + w_16 + w_17 + w_18 + w_19 + w_20
 + w_21 + w_22 + w_23 + w_24 + w_25 + w_26 + w_27 + w_28 + w_29 + w_30 + w_31
 + w_32 + w_33 + w_34 + w_35 + w_36 + w_37 + w_38 + w_39 + w_4 + w_40 + w_41
 + w_42 + w_43 + w_44 + w_45 + w_46 + w_47 + w_48 + w_49 + w_5 + w_50 + w_51
 + w_52 + w_6 + w_7 + w_9 >= 1
FOSD_0_3: 3 w_0 + w_15 + w_16 + w_17 + w_18 + w_19 + w_20 + w_21 + w_22 + w_23
 + w_24 + w_25 + w_26 + w_27 + w_28 + w_29 + w_30 + w_32 + w_33 + w_34 + w_38
 + w_39 + w_4 + w_40 + w_41 + w_42 + w_43 + w_44 + w_45 + w_46 + w_47 + w_48
 + w_49 + w_5 + w_50 + w_51 + w_52 + w_6 + w_7 + w_9 >= 0.799
FOSD_1_0: 2 w_0 + w_23 + w_27 + w_34 >= 0.2
FOSD_1_1: w_0 + w_23 + w_27 + w_34 >= 0.2
FOSD_1_2: 4 w_0 + w_1 + w_10 + w_11 + w_12 + w_13 + w_14 + w_15 + w_16 + w_17
 + w_18 + w_19 + w_2 + w_20 + w_21 + w_22 + w_23 + w_24 + w_25 + w_26 + w_27
 + w_28 + w_29 + w_3 + w_30 + w_31 + w_32 + w_33 + w_34 + w_35 + w_36 + w_37
 + w_38 + w_4 + w_40 + w_41 + w_42 + w_43 + w_44 + w_45 + w_46 + w_47 + w_48
 + w_49 + w_5 + w_50 + w_51 + w_52 + w_6 + w_7 + w_8 + w_9 >= 1
FOSD_1_3: 3 w_0 + w_20 + w_22 + w_23 + w_24 + w_25 + w_27 + w_28 + w_29 + w_31
 + w_32 + w_34 + w_35 + w_36 + w_37 + w_38 + w_43 + w_52 >= 0.501
FOSD_2_0: 2 w_0 + w_1 + w_10 + w_14 + w_15 + w_16 + w_21 + w_22 + w_24 + w_25
 + w_29 + w_31 + w_32 + w_33 + w_37 + w_38 + w_39 + w_42 + w_5 + w_51 + w_52
 + w_6 >= 0.229
FOSD_2_1: w_0 + w_1 + w_10 + w_14 + w_15 + w_16 + w_21 + w_22 + w_24 + w_25
 + w_29 + w_31 + w_32 + w_33 + w_37 + w_38 + w_39 + w_42 + w_5 + w_51 + w_52
 + w_6 >= 0.229
FOSD_2_2: 4 w_0 + w_1 + w_10 + w_11 + w_12 + w_13 + w_14 + w_15 + w_16 + w_17
 + w_18 + w_19 + w_2 + w_20 + w_21 + w_22 + w_23 + w_24 + w_25 + w_26 + w_27
 + w_28 + w_29 + w_3 + w_30 + w_31 + w_32 + w_33 + w_34 + w_35 + w_36 + w_37
 + w_38 + w_39 + w_4 + w_40 + w_41 + w_42 + w_43 + w_44 + w_45 + w_46 + w_47
 + w_48 + w_49 + w_5 + w_50 + w_51 + w_52 + w_6 + w_7 + w_8 + w_9 >= 1
FOSD_2_3: 3 w_0 + w_1 + w_10 + w_11 + w_12 + w_13 + w_14 + w_15 + w_16 + w_17
 + w_18 + w_19 + w_2 + w_20 + w_21 + w_22 + w_23 + w_24 + w_25 + w_26 + w_27
 + w_28 + w_29 + w_3 + w_30 + w_31 + w_32 + w_33 + w_34 + w_35 + w_36 + w_37
 + w_38 + w_39 + w_4 + w_40 + w_41 + w_42 + w_43 + w_44 + w_45 + w_46 + w_47
 + w_48 + w_49 + w_5 + w_50 + w_51 + w_52 + w_6 + w_7 + w_8 + w_9 >= 1
FOSD_3_0: 3 w_0 + w_12 + w_13 + w_14 + w_15 + w_17 + w_19 + w_2 + w_21 + w_25
 + w_26 + w_27 + w_28 + w_29 + w_3 + w_30 + w_31 + w_36 + w_40 + w_41 + w_5
 + w_6 >= 0.537
FOSD_3_1: 2 w_0 + w_12 + w_13 + w_14 + w_15 + w_17 + w_19 + w_2 + w_21 + w_25
 + w_26 + w_27 + w_28 + w_29 + w_3 + w_30 + w_31 + w_36 + w_40 + w_41 + w_5
 + w_6 >= 0.537
FOSD_3_2: 4 w_0 + w_10 + w_11 + w_12 + w_13 + w_14 + w_15 + w_17 + w_19 + w_2
 + w_20 + w_21 + w_22 + w_23 + w_24 + w_25 + w_26 + w_27 + w_28 + w_29 + w_3
 + w_30 + w_31 + w_32 + w_33 + w_34 + w_35 + w_36 + w_37 + w_38 + w_39 + w_40
 + w_41 + w_42 + w_43 + w_44 + w_45 + w_48 + w_49 + w_5 + w_51 + w_52 + w_6
 + w_9 >= 1
FOSD_3_3: w_0 + w_13 + w_14 + w_15 + w_17 + w_19 + w_21 + w_25 + w_26 + w_27
 + w_29 + w_3 + w_31 + w_40 + w_41 + w_5 + w_6 >= 0.537
FOSD_4_0: w_0 + w_17 + w_18 >= 0.043
FOSD_4_1: 2 w_0 + w_1 + w_10 + w_11 + w_12 + w_13 + w_14 + w_15 + w_16 + w_17
 + w_18 + w_19 + w_2 + w_20 + w_21 + w_22 + w_23 + w_24 + w_25 + w_26 + w_27
 + w_28 + w_29 + w_3 + w_30 + w_31 + w_32 + w_33 + w_34 + w_35 + w_36 + w_37
 + w_38 + w_39 + w_4 + w_40 + w_41 + w_42 + w_43 + w_44 + w_45 + w_46 + w_47
 + w_48 + w_49 + w_5 + w_50 + w_51 + w_52 + w_6 + w_7 + w_8 + w_9 >= 1
FOSD_4_2: 4 w_0 + w_1 + w_10 + w_11 + w_12 + w_13 + w_14 + w_15 + w_16 + w_17
 + w_18 + w_19 + w_2 + w_20 + w_21 + w_22 + w_23 + w_24 + w_25 + w_26 + w_27
 + w_28 + w_29 + w_3 + w_30 + w_31 + w_32 + w_33 + w_34 + w_35 + w_36 + w_37
 + w_38 + w_39 + w_4 + w_40 + w_41 + w_42 + w_43 + w_44 + w_45 + w_46 + w_47
 + w_48 + w_49 + w_5 + w_50 + w_51 + w_52 + w_6 + w_7 + w_8 + w_9 >= 1
FOSD_4_3: 3 w_0 + w_1 + w_10 + w_11 + w_12 + w_13 + w_14 + w_15 + w_16 + w_17
 + w_18 + w_19 + w_2 + w_20 + w_21 + w_22 + w_23 + w_24 + w_25 + w_26 + w_27
 + w_28 + w_29 + w_3 + w_30 + w_31 + w_32 + w_33 + w_34 + w_35 + w_36 + w_37
 + w_38 + w_39 + w_4 + w_40 + w_41 + w_42 + w_43 + w_44 + w_45 + w_46 + w_47
 + w_48 + w_49 + w_5 + w_50 + w_51 + w_52 + w_6 + w_7 + w_8 + w_9 >= 1
FOSD_5_0: 2 w_0 + w_1 + w_10 + w_11 + w_12 + w_13 + w_14 + w_15 + w_16 + w_17
 + w_18 + w_19 + w_2 + w_20 + w_21 + w_22 + w_23 + w_24 + w_25 + w_26 + w_27
 + w_28 + w_3 + w_30 + w_31 + w_35 + w_36 + w_37 + w_39 + w_4 + w_40 + w_41
 + w_42 + w_43 + w_44 + w_45 + w_46 + w_47 + w_48 + w_49 + w_5 + w_50 + w_51
 + w_52 + w_7 + w_8 + w_9 >= 0.786
FOSD_5_1: w_0 + w_17 + w_18 + w_19 + w_20 >= 0.198
FOSD_5_2: 4 w_0 + w_1 + w_10 + w_11 + w_12 + w_13 + w_14 + w_15 + w_16 + w_17
 + w_18 + w_19 + w_2 + w_20 + w_21 + w_22 + w_23 + w_24 + w_25 + w_26 + w_27
 + w_28 + w_3 + w_30 + w_31 + w_34 + w_35 + w_36 + w_37 + w_38 + w_39 + w_4
 + w_40 + w_41 + w_42 + w_43 + w_44 + w_45 + w_46 + w_47 + w_48 + w_49 + w_5
 + w_50 + w_51 + w_52 + w_7 + w_8 + w_9 >= 1
FOSD_5_3: 3 w_0 + w_1 + w_10 + w_11 + w_12 + w_13 + w_14 + w_15 + w_16 + w_17
 + w_18 + w_19 + w_2 + w_20 + w_21 + w_22 + w_23 + w_24 + w_25 + w_26 + w_27
 + w_28 + w_3 + w_30 + w_31 + w_35 + w_36 + w_37 + w_38 + w_39 + w_4 + w_40
 + w_41 + w_42 + w_43 + w_44 + w_45 + w_46 + w_47 + w_48 + w_49 + w_5 + w_50
 + w_51 + w_52 + w_7 + w_8 + w_9 >= 0.81
FOSD_6_0: 2 w_0 + w_13 + w_26 + w_35 + w_41 + w_43 + w_45 >= 0.196
FOSD_6_1: w_0 + w_13 + w_26 + w_35 + w_41 + w_43 + w_45 >= 0.196
FOSD_6_2: 4 w_0 + w_1 + w_12 + w_13 + w_14 + w_15 + w_16 + w_17 + w_18 + w_19
 + w_2 + w_20 + w_21 + w_22 + w_23 + w_24 + w_25 + w_26 + w_27 + w_28 + w_29
 + w_3 + w_30 + w_31 + w_32 + w_33 + w_34 + w_35 + w_36 + w_37 + w_38 + w_39
 + w_4 + w_40 + w_41 + w_42 + w_43 + w_44 + w_45 + w_46 + w_47 + w_5 + w_50
 + w_52 + w_6 + w_7 + w_8 >= 1
FOSD_6_3: 3 w_0 + w_12 + w_13 + w_14 + w_15 + w_21 + w_23 + w_24 + w_26 + w_30
 + w_32 + w_33 + w_34 + w_35 + w_37 + w_41 + w_42 + w_43 + w_44 + w_45 >= 0.51
FOSD_7_0: w_0 + w_1 + w_10 + w_11 + w_12 + w_13 + w_14 + w_17 + w_18 + w_19
 + w_2 + w_20 + w_29 + w_3 + w_31 + w_32 + w_33 + w_34 + w_35 + w_36 + w_37
 + w_38 + w_4 + w_52 + w_6 + w_7 + w_8 + w_9 >= 0.817
FOSD_7_1: 3 w_0 + w_1 + w_10 + w_11 + w_12 + w_13 + w_14 + w_17 + w_18 + w_19
 + w_2 + w_20 + w_29 + w_3 + w_31 + w_32 + w_33 + w_34 + w_35 + w_36 + w_37
 + w_38 + w_39 + w_4 + w_46 + w_47 + w_48 + w_49 + w_51 + w_52 + w_6 + w_7
 + w_8 + w_9 >= 0.843
FOSD_7_2: 4 w_0 + w_1 + w_10 + w_11 + w_12 + w_13 + w_14 + w_15 + w_17 + w_18
 + w_19 + w_2 + w_20 + w_24 + w_25 + w_26 + w_27 + w_28 + w_29 + w_3 + w_30
 + w_31 + w_32 + w_33 + w_34 + w_35 + w_36 + w_37 + w_38 + w_39 + w_4 + w_43
 + w_46 + w_47 + w_48 + w_49 + w_51 + w_52 + w_6 + w_7 + w_8 + w_9 >= 1
FOSD_7_3: 2 w_0 + w_1 + w_10 + w_11 + w_12 + w_13 + w_14 + w_17 + w_18 + w_19
 + w_2 + w_20 + w_29 + w_3 + w_31 + w_32 + w_33 + w_34 + w_35 + w_36 + w_37
 + w_38 + w_39 + w_4 + w_46 + w_48 + w_51 + w_52 + w_6 + w_7 + w_8 + w_9
 >= 0.843
Sum_to_one: w_0 + w_1 + w_10 + w_11 + w_12 + w_13 + w_14 + w_15 + w_16 + w_17
 + w_18 + w_19 + w_2 + w_20 + w_21 + w_22 + w_23 + w_24 + w_25 + w_26 + w_27
 + w_28 + w_29 + w_3 + w_30 + w_31 + w_32 + w_33 + w_34 + w_35 + w_36 + w_37
 + w_38 + w_39 + w_4 + w_40 + w_41 + w_42 + w_43 + w_44 + w_45 + w_46 + w_47
 + w_48 + w_49 + w_5 + w_50 + w_51 + w_52 + w_6 + w_7 + w_8 + w_9 = 1
Bounds
 __dummy = 0
End
